check/instances/MINLP/tltr.nl
g3 3 1 0	# problem tltr
 48 54 1 0 0	# vars, constraints, objectives, ranges, eqns
 3 0	# nonlinear constraints, objectives
 0 0	# network constraints: nonlinear, linear
 36 0 0	# nonlinear vars in constraints, objectives, both
 0 0 0 1	# linear network variables; functions; arith, flags
 12 0 0 36 0	# discrete variables: binary, integer, nonlinear (b,c,o)
 216 11	# nonzeros in Jacobian, gradients
 3 3	# max name lengths: constraints, variables
 0 0 0 0 0	# common exprs: b,c,o,c1,o1
C0
o54
9
o2
v27
v0
o2
v30
v3
o2
v33
v6
o2
v28
v1
o2
v31
v4
o2
v34
v7
o2
v29
v2
o2
v32
v5
o2
v35
v8
C1
o54
9
o2
v27
v9
o2
v30
v12
o2
v33
v15
o2
v28
v10
o2
v31
v13
o2
v34
v16
o2
v29
v11
o2
v32
v14
o2
v35
v17
C2
o54
9
o2
v27
v18
o2
v30
v21
o2
v33
v24
o2
v28
v19
o2
v31
v22
o2
v34
v25
o2
v29
v20
o2
v32
v23
o2
v35
v26
C3
n0
C4
n0
C5
n0
C6
n0
C7
n0
C8
n0
C9
n0
C10
n0
C11
n0
C12
n0
C13
n0
C14
n0
C15
n0
C16
n0
C17
n0
C18
n0
C19
n0
C20
n0
C21
n0
C22
n0
C23
n0
C24
n0
C25
n0
C26
n0
C27
n0
C28
n0
C29
n0
C30
n0
C31
n0
C32
n0
C33
n0
C34
n0
C35
n0
C36
n0
C37
n0
C38
n0
C39
n0
C40
n0
C41
n0
C42
n0
C43
n0
C44
n0
C45
n0
C46
n0
C47
n0
C48
n0
C49
n0
C50
n0
C51
n0
C52
n0
C53
n0
O0 0
n0
x5
0 1
9 1
19 1
27 15
28 80
r
2 9
2 15
2 80
1 0
1 0
1 0
1 0
1 0
1 0
1 0
1 0
1 0
1 0
1 0
1 0
1 0
1 0
1 0
1 0
1 0
1 0
1 0
1 0
1 0
1 0
1 0
1 0
1 0
1 0
1 0
1 0
1 0
1 0
1 0
1 0
1 0
1 0
1 0
1 0
1 0
1 0
1 0
1 0
1 0
1 0
1 0
1 0
1 0
1 0
1 0
1 0
1 0
1 0
1 0
b
0 0 5
0 0 5
0 0 5
0 0 5
0 0 5
0 0 5
0 0 5
0 0 5
0 0 5
0 0 5
0 0 5
0 0 5
0 0 5
0 0 5
0 0 5
0 0 5
0 0 5
0 0 5
0 0 5
0 0 5
0 0 5
0 0 5
0 0 5
0 0 5
0 0 5
0 0 5
0 0 5
0 0 100
0 0 100
0 0 100
0 0 100
0 0 100
0 0 100
0 0 100
0 0 100
0 0 100
0 0 1
0 0 1
0 0 1
0 0 1
0 0 1
0 0 1
0 0 1
0 0 1
0 0 1
0 0 1
0 0 1
0 0 1
k47
4
8
12
16
20
24
28
32
36
40
44
48
52
56
60
64
68
72
76
80
84
88
92
96
100
104
108
114
120
126
133
140
147
153
159
165
166
167
168
173
178
183
189
195
201
206
211
J0 18
0 0
1 0
2 0
3 0
4 0
5 0
6 0
7 0
8 0
27 0
28 0
29 0
30 0
31 0
32 0
33 0
34 0
35 0
J1 18
9 0
10 0
11 0
12 0
13 0
14 0
15 0
16 0
17 0
27 0
28 0
29 0
30 0
31 0
32 0
33 0
34 0
35 0
J2 18
18 0
19 0
20 0
21 0
22 0
23 0
24 0
25 0
26 0
27 0
28 0
29 0
30 0
31 0
32 0
33 0
34 0
35 0
J3 4
0 12
9 24
18 36
39 -48
J4 4
1 12
10 24
19 36
40 -48
J5 4
2 12
11 24
20 36
41 -62
J6 4
3 12
12 24
21 36
42 -48
J7 4
4 12
13 24
22 36
43 -48
J8 4
5 12
14 24
23 36
44 -62
J9 4
6 12
15 24
24 36
45 -48
J10 4
7 12
16 24
25 36
46 -48
J11 4
8 12
17 24
26 36
47 -62
J12 4
0 -1
9 -1
18 -1
39 1
J13 4
1 -1
10 -1
19 -1
40 1
J14 4
2 -1
11 -1
20 -1
41 1
J15 4
3 -1
12 -1
21 -1
42 1
J16 4
4 -1
13 -1
22 -1
43 1
J17 4
5 -1
14 -1
23 -1
44 1
J18 4
6 -1
15 -1
24 -1
45 1
J19 4
7 -1
16 -1
25 -1
46 1
J20 4
8 -1
17 -1
26 -1
47 1
J21 2
27 1
39 -72
J22 2
28 1
40 -182
J23 2
29 1
41 -182
J24 2
30 1
42 -72
J25 2
31 1
43 -182
J26 2
32 1
44 -182
J27 2
33 1
45 -72
J28 2
34 1
46 -182
J29 2
35 1
47 -182
J30 4
0 1
9 1
18 1
39 -5
J31 4
1 1
10 1
19 1
40 -5
J32 4
2 1
11 1
20 1
41 -5
J33 4
3 1
12 1
21 1
42 -5
J34 4
4 1
13 1
22 1
43 -5
J35 4
5 1
14 1
23 1
44 -5
J36 4
6 1
15 1
24 1
45 -5
J37 4
7 1
16 1
25 1
46 -5
J38 4
8 1
17 1
26 1
47 -5
J39 4
27 7
30 7
33 7
36 -500
J40 4
28 7
31 7
34 7
37 -1270
J41 4
29 7
32 7
35 7
38 -1270
J42 2
39 -1
42 1
J43 2
40 -1
43 1
J44 2
41 -1
44 1
J45 2
42 -1
45 1
J46 2
43 -1
46 1
J47 2
44 -1
47 1
J48 2
27 -1
30 1
J49 2
28 -1
31 1
J50 2
29 -1
32 1
J51 2
30 -1
33 1
J52 2
31 -1
34 1
J53 2
32 -1
35 1
G0 11
37 35
38 35
39 6.53333333333333
40 6.53333333333333
41 6.7375
42 6.53333333333333
43 6.53333333333333
44 6.7375
45 6.53333333333333
46 6.53333333333333
47 6.7375
