check/instances/MINLP/tltr.col
i4
i5
i6
i7
i8
i9
i10
i11
i12
i13
i14
i15
i16
i17
i18
i19
i20
i21
i22
i23
i24
i25
i26
i27
i28
i29
i30
i40
i41
i42
i43
i44
i45
i46
i47
i48
b1
b2
b3
b31
b32
b33
b34
b35
b36
b37
b38
b39
